bomb.22.tsp
NAME : GeneratedProblem
COMMENT : SVGCrosshatch
TYPE : TSP
DIMENSION : 6
EDGE_WEIGHT_TYPE : EUC_2D
NODE_COORD_SECTION
1 1300 7500
2 1500 6900
3 1700 6700
4 1900 7100
5 2000 6500
6 2100 7500
EOF
